Problem:    
Rows:       113
Columns:    45 (34 integer, 34 binary)
Non-zeros:  356
Status:     INTEGER OPTIMAL
Objective:  value = 16.509373 (MINimum)

   No.   Row name        Activity     Lower bound   Upper bound
------ ------------    ------------- ------------- -------------
     1 r.5                   16.5094             0               
     2 r.6                   16.5094      -996.688               
     3 r.7                   1016.51             0               
     4 r.8                  -993.988      -997.548               
     5 r.9                   1016.51             0               
     6 r.10                 -987.472      -991.307               
     7 r.11                  16.5094             0               
     8 r.12                  16.5094      -993.648               
     9 r.13                  1016.51             0               
    10 r.14                 -983.491      -996.019               
    11 r.15                  16.5094             0               
    12 r.16                  16.5094      -996.081               
    13 r.17                  16.5094             0               
    14 r.18                  16.5094      -986.101               
    15 r.19                  1016.51             0               
    16 r.20                 -983.491      -989.503               
    17 r.21                  1016.51             0               
    18 r.22                 -999.848      -999.848               
    19 r.23                  16.5094             0               
    20 r.24                  6.04216      -998.486               
    21 r.25                        1             1             = 
    22 r.26                        1             1             = 
    23 r.27                        1             1             = 
    24 r.28                        1             1             = 
    25 r.29                        1             1             = 
    26 r.30                     1001             2               
    27 r.31                    -1001         -1001               
    28 r.32                  1996.02      -991.307               
    29 r.33                     1001             2               
    30 r.34                    -1001         -1001               
    31 r.35                   2010.5      -993.648               
    32 r.36                     1001             2               
    33 r.37                    -1001         -1001               
    34 r.38                     2000      -996.019               
    35 r.39                     1001             2               
    36 r.40                    -1001         -1001               
    37 r.41                   2010.5      -996.081               
    38 r.42                     1000             2               
    39 r.43                    -1000         -1001               
    40 r.44                     2000      -986.101               
    41 r.45                        2             2               
    42 r.46                       -2         -1001               
    43 r.47                 -989.503      -989.503               
    44 r.48                  12.9499      -996.688               
    45 r.49                 -997.548      -997.548               
    46 r.50                  12.9499      -996.688               
    47 r.51                 -997.548      -997.548               
    48 r.52                     1001             2               
    49 r.53                    -1001         -1001               
    50 r.54                  2003.98       3.31223               
    51 r.55                     1001             2               
    52 r.56                    -1001         -1001               
    53 r.57                   1989.5       2.45244               
    54 r.58                        2             2               
    55 r.59                       -2         -1001               
    56 r.60                 -996.019      -996.019               
    57 r.61                     1000             2               
    58 r.62                    -1000         -1001               
    59 r.63                     2000      -996.081               
    60 r.64                     1001             2               
    61 r.65                    -1001         -1001               
    62 r.66                  2003.98      -986.101               
    63 r.67                     1001             2               
    64 r.68                    -1001         -1001               
    65 r.69                     2000      -989.503               
    66 r.70                 -991.031      -991.307               
    67 r.71                  12.9499      -993.648               
    68 r.72                 -991.031      -991.307               
    69 r.73                  12.9499      -993.648               
    70 r.74                     1001             2               
    71 r.75                    -1001         -1001               
    72 r.76                     2000       3.31223               
    73 r.77                     1001             2               
    74 r.78                    -1001         -1001               
    75 r.79                   1989.5       2.45244               
    76 r.80                        2             2               
    77 r.81                       -2         -1001               
    78 r.82                  996.019       8.69337               
    79 r.83                     1000             2               
    80 r.84                    -1000         -1001               
    81 r.85                     2000       6.35208               
    82 r.86                     1001             2               
    83 r.87                    -1001         -1001               
    84 r.88                     2000      -986.101               
    85 r.89                     1001             2               
    86 r.90                    -1001         -1001               
    87 r.91                     2000      -989.503               
    88 r.92                  -987.05      -996.019               
    89 r.93                  12.9499      -996.081               
    90 r.94                  -987.05      -996.019               
    91 r.95                  12.9499      -996.081               
    92 r.96                     1000             2               
    93 r.97                    -1000         -1001               
    94 r.98                     2000       3.31223               
    95 r.99                        2             2               
    96 r.100                      -2         -1001               
    97 r.101                 989.503       2.45244               
    98 r.102                    1001             2               
    99 r.103                   -1001         -1001               
   100 r.104                 1996.02       8.69337               
   101 r.105                    1001             2               
   102 r.106                   -1001         -1001               
   103 r.107                    2000       6.35208               
   104 r.108                    1001             2               
   105 r.109                   -1001         -1001               
   106 r.110                    2000       3.98097               
   107 r.111                    1001             2               
   108 r.112                   -1001         -1001               
   109 r.113                    2000       3.91867               
   110 r.114                 12.9499      -986.101               
   111 r.115                 -987.05      -989.503               
   112 r.116                 12.9499      -986.101               
   113 r.117                 -987.05      -989.503               

   No. Column name       Activity     Lower bound   Upper bound
------ ------------    ------------- ------------- -------------
     1 tt                    16.5094             0               
     2 s_1_1        *              0             0             1 
     3 t_1_1                       0             0               
     4 s_2_1        *              1             0             1 
     5 t_2_1                 10.4975             0               
     6 s_1_2        *              1             0             1 
     7 t_1_2                 3.98097             0               
     8 s_2_2        *              0             0             1 
     9 t_2_2                       0             0               
    10 s_1_3        *              1             0             1 
    11 t_1_3                       0             0               
    12 s_2_3        *              0             0             1 
    13 t_2_3                       0             0               
    14 s_1_4        *              0             0             1 
    15 t_1_4                       0             0               
    16 s_2_4        *              1             0             1 
    17 t_2_4                       0             0               
    18 s_1_5        *              1             0             1 
    19 t_1_5                 12.9499             0               
    20 s_2_5        *              0             0             1 
    21 t_2_5                 12.9499             0               
    22 r_1_1_2      *              1             0             1 
    23 u_1_1_2      *              0             0             1 
    24 r_2_1_2      *              1             0             1 
    25 u_2_1_2      *              0             0             1 
    26 r_1_1_3      *              1             0             1 
    27 u_1_1_3      *              0             0             1 
    28 r_2_1_3      *              1             0             1 
    29 u_2_1_3      *              0             0             1 
    30 r_1_1_4      *              1             0             1 
    31 u_1_1_4      *              0             0             1 
    32 r_2_1_4      *              0             0             1 
    33 u_2_1_4      *              1             0             1 
    34 r_1_2_3      *              0             0             1 
    35 u_1_2_3      *              1             0             1 
    36 r_2_2_3      *              1             0             1 
    37 u_2_2_3      *              0             0             1 
    38 r_1_2_4      *              1             0             1 
    39 u_1_2_4      *              0             0             1 
    40 r_2_2_4      *              1             0             1 
    41 u_2_2_4      *              0             0             1 
    42 r_1_3_4      *              1             0             1 
    43 u_1_3_4      *              0             0             1 
    44 r_2_3_4      *              1             0             1 
    45 u_2_3_4      *              0             0             1 

Integer feasibility conditions:

KKT.PE: max.abs.err = 1.14e-13 on row 18
        max.rel.err = 5.57e-17 on row 18
        High quality

KKT.PB: max.abs.err = 1.14e-13 on row 18
        max.rel.err = 1.14e-16 on row 18
        High quality

End of output
